HUN,8,6,626
3,20,2,12,5,27,4,29,1,6,0,1
2,21,3,23,5,20,1,15,4,16,0,1
5,20,4,20,3,20,0,21,2,14,1,2
5,10,2,9,4,1,1,12,0,13,3,11
2,30,3,7,5,4,1,25,4,17,0,21
1,9,0,16,2,4,3,8,5,26,4,12
3,24,4,6,5,4,1,20,2,15,0,12
3,9,1,3,2,21,0,13,5,25,4,17
